33D32945 STP File, STP Format Version 1.0

SECTION Comment
Name    "Series B" 
Creator "A. M. Costa" 
Format  "Z.H. Fu and J. K. Hao"
Remark  "Sparse graph with random weights"
#TotalEdgeCost 1133
#BudgetFraction 5
END 

SECTION Graph 
Nodes 100 
Edges 200 
Root 1
Budget 226
HopLimit 12
E 1 29 6 
E 1 34 1 
E 1 61 10 
E 1 70 3 
E 1 77 3 
E 1 98 2 
E 2 10 1 
E 2 72 2 
E 2 73 7 
E 2 80 8 
E 2 82 1 
E 3 17 2 
E 3 32 9 
E 3 33 3 
E 3 43 7 
E 3 80 7 
E 3 94 2 
E 4 14 10 
E 4 18 9 
E 4 42 4 
E 4 63 10 
E 4 81 2 
E 5 40 3 
E 5 87 8 
E 5 99 10 
E 6 27 8 
E 6 65 5 
E 6 69 2 
E 6 93 2 
E 7 33 2 
E 7 35 9 
E 8 19 8 
E 9 61 3 
E 10 41 9 
E 10 70 9 
E 10 82 8 
E 11 20 10 
E 11 39 5 
E 11 68 10 
E 11 85 2 
E 12 23 2 
E 12 57 2 
E 12 67 3 
E 13 57 2 
E 13 83 8 
E 13 97 2 
E 14 26 7 
E 14 46 3 
E 14 51 7 
E 14 69 10 
E 14 70 8 
E 14 84 1 
E 14 92 9 
E 14 94 2 
E 15 55 8 
E 15 95 3 
E 16 30 9 
E 16 64 9 
E 16 68 5 
E 17 28 1 
E 17 48 10 
E 17 67 8 
E 17 80 9 
E 18 19 4 
E 18 37 4 
E 18 57 4 
E 18 60 10 
E 19 31 3 
E 19 47 8 
E 19 59 6 
E 19 87 3 
E 19 89 9 
E 20 71 5 
E 20 90 5 
E 21 33 1 
E 21 35 4 
E 21 61 4 
E 21 68 5 
E 22 64 4 
E 22 67 8 
E 22 74 3 
E 22 89 7 
E 23 31 7 
E 23 39 2 
E 23 76 10 
E 23 78 8 
E 23 96 5 
E 23 99 10 
E 24 75 8 
E 25 98 10 
E 26 66 5 
E 27 30 4 
E 27 42 8 
E 27 55 1 
E 27 75 8 
E 27 80 7 
E 27 97 10 
E 28 37 8 
E 29 54 6 
E 30 40 7 
E 30 81 8 
E 30 84 8 
E 31 37 7 
E 31 70 1 
E 31 75 8 
E 31 80 10 
E 32 53 6 
E 32 57 3 
E 33 73 3 
E 33 77 4 
E 33 99 9 
E 34 56 9 
E 34 65 5 
E 34 93 5 
E 35 36 1 
E 35 84 8 
E 36 44 9 
E 36 93 7 
E 37 45 10 
E 37 52 8 
E 37 54 10 
E 38 70 3 
E 39 66 4 
E 39 83 6 
E 40 77 8 
E 41 44 1 
E 41 94 8 
E 42 43 10 
E 42 68 7 
E 42 85 5 
E 42 90 2 
E 42 99 8 
E 43 72 3 
E 44 73 1 
E 44 75 9 
E 44 82 7 
E 44 92 8 
E 44 96 3 
E 45 60 10 
E 45 87 1 
E 46 54 3 
E 46 96 6 
E 47 71 8 
E 47 89 6 
E 47 96 5 
E 49 50 6 
E 49 72 3 
E 49 91 7 
E 49 100 4 
E 50 75 1 
E 50 81 4 
E 52 79 3 
E 53 70 7 
E 53 97 7 
E 54 57 8 
E 55 62 9 
E 55 79 1 
E 55 97 4 
E 56 69 3 
E 56 81 4 
E 57 93 2 
E 58 72 7 
E 58 75 1 
E 59 76 5 
E 60 76 5 
E 62 72 10 
E 62 78 10 
E 63 93 1 
E 64 68 3 
E 64 88 4 
E 65 71 1 
E 65 87 1 
E 65 90 1 
E 66 85 5 
E 67 79 8 
E 67 96 6 
E 67 97 5 
E 68 74 8 
E 69 79 6 
E 70 73 7 
E 70 77 8 
E 71 73 10 
E 71 75 4 
E 71 99 8 
E 72 93 9 
E 73 79 5 
E 75 97 4 
E 75 99 7 
E 77 84 8 
E 78 100 5 
E 81 82 2 
E 82 100 9 
E 83 88 9 
E 83 95 5 
E 84 93 8 
E 85 89 1 
E 85 100 3 
E 86 95 2 
E 90 92 8 
E 92 93 9 
END 

SECTION ProfitableVertices 
ProfitableVertices 50 
PV 1 11
PV 9 5
PV 11 42
PV 16 97
PV 17 87
PV 18 27
PV 19 63
PV 20 15
PV 21 95
PV 23 58
PV 25 54
PV 27 24
PV 33 93
PV 34 52
PV 36 38
PV 38 7
PV 40 67
PV 43 94
PV 44 69
PV 46 70
PV 49 5
PV 50 47
PV 51 60
PV 52 84
PV 54 38
PV 55 84
PV 57 31
PV 58 73
PV 59 43
PV 60 42
PV 61 20
PV 62 5
PV 66 11
PV 67 72
PV 69 42
PV 70 37
PV 79 3
PV 81 54
PV 82 62
PV 83 45
PV 84 84
PV 85 55
PV 88 97
PV 89 94
PV 91 33
PV 93 79
PV 94 34
PV 95 86
PV 97 72
PV 100 25
END 

EOF 
